; benchmark generated from python API
(set-info :status unknown)
(declare-fun x_days () Int)
(declare-fun y_days () Int)
(assert
 (>= x_days (- 36525)))
(assert
 (<= x_days 36523))
(assert
 (>= y_days (- 36525)))
(assert
 (<= y_days 36523))
(assert
 (= x_days 7304))
(assert
 (let ((?x3782 (+ x_days 730179)))
 (let ((?x531 (mod ?x3782 146097)))
 (let ((?x632 (div ?x531 36524)))
 (let ((?x3688 (ite (<= 4 ?x632) 3 ?x632)))
 (let ((?x1057 (- ?x531 (* ?x3688 36524))))
 (let ((?x912 (mod ?x1057 1461)))
 (let ((?x561 (div ?x912 365)))
 (let ((?x741 (ite (<= 4 ?x561) 3 ?x561)))
 (let ((?x963 (+ (+ (* (div ?x3782 146097) 400) (* ?x3688 100)) (* (div ?x1057 1461) 4))))
 (let ((?x3176 (+ (+ ?x963 ?x741) 1)))
 (let (($x591 (or (and (= (mod ?x3176 4) 0) (and (distinct (mod ?x3176 100) 0) true)) (= (mod ?x3176 400) 0))))
 (let ((?x2541 (- ?x912 (* ?x741 365))))
 (let ((?x3867 (ite $x591 31 31)))
 (let (($x558 (>= ?x2541 ?x3867)))
 (let ((?x1794 (ite $x558 (+ (- ?x2541 ?x3867) 1) (+ (- ?x2541 (ite $x591 0 0)) 1))))
 (let ((?x690 (ite $x591 60 59)))
 (let (($x1027 (>= ?x2541 ?x690)))
 (let ((?x1195 (ite $x591 91 90)))
 (let (($x1324 (>= ?x2541 ?x1195)))
 (let ((?x680 (ite $x1324 (+ (- ?x2541 ?x1195) 1) (ite $x1027 (+ (- ?x2541 ?x690) 1) ?x1794))))
 (let ((?x1138 (ite $x591 121 120)))
 (let (($x1132 (>= ?x2541 ?x1138)))
 (let ((?x3443 (ite $x591 152 151)))
 (let (($x836 (>= ?x2541 ?x3443)))
 (let ((?x1082 (ite $x836 (+ (- ?x2541 ?x3443) 1) (ite $x1132 (+ (- ?x2541 ?x1138) 1) ?x680))))
 (let ((?x544 (ite $x591 182 181)))
 (let (($x744 (>= ?x2541 ?x544)))
 (let ((?x653 (ite $x591 213 212)))
 (let (($x1148 (>= ?x2541 ?x653)))
 (let ((?x1713 (ite $x1148 (+ (- ?x2541 ?x653) 1) (ite $x744 (+ (- ?x2541 ?x544) 1) ?x1082))))
 (let ((?x727 (ite $x591 244 243)))
 (let (($x775 (>= ?x2541 ?x727)))
 (let ((?x3864 (ite $x591 274 273)))
 (let (($x444 (>= ?x2541 ?x3864)))
 (let ((?x2014 (ite $x444 (+ (- ?x2541 ?x3864) 1) (ite $x775 (+ (- ?x2541 ?x727) 1) ?x1713))))
 (let ((?x452 (ite $x591 305 304)))
 (let (($x2745 (>= ?x2541 ?x452)))
 (let ((?x1173 (ite $x591 335 334)))
 (let (($x3643 (>= ?x2541 ?x1173)))
 (let ((?x2855 (ite $x3643 (+ (- ?x2541 ?x1173) 1) (ite $x2745 (+ (- ?x2541 ?x452) 1) ?x2014))))
 (let ((?x612 (ite $x1132 5 (ite $x1324 4 (ite $x1027 3 (ite $x558 2 1))))))
 (let ((?x2273 (ite $x775 9 (ite $x1148 8 (ite $x744 7 (ite $x836 6 ?x612))))))
 (let ((?x941 (+ (ite $x3643 12 (ite $x2745 11 (ite $x444 10 ?x2273))) (+ (* 1 12) 0))))
 (let ((?x3003 (- ?x941 1)))
 (let ((?x543 (+ (mod ?x3003 12) 1)))
 (let ((?x819 (ite (or (= ?x543 4) (= ?x543 6) (= ?x543 9) (= ?x543 11)) 30 31)))
 (let (($x2916 (and (= (mod (+ ?x3176 (+ 0 (div ?x3003 12))) 4) 0) (and (distinct (mod (+ ?x3176 (+ 0 (div ?x3003 12))) 100) 0) true))))
 (let (($x3290 (or $x2916 (= (mod (+ ?x3176 (+ 0 (div ?x3003 12))) 400) 0))))
 (let ((?x694 (ite (= ?x543 2) (ite $x3290 29 28) ?x819)))
 (let ((?x1231 (ite (> 1 ?x2855) 1 (ite (> ?x2855 ?x694) ?x694 ?x2855))))
 (let ((?x3454 (ite (> 1 ?x1231) 1 (ite (> ?x1231 ?x694) ?x694 ?x1231))))
 (let ((?x3558 (ite (= 2 ?x543) (ite $x3290 31 31) (ite (= 1 ?x543) (ite $x3290 0 0) 0))))
 (let ((?x1232 (ite (= 4 ?x543) (ite $x3290 91 90) (ite (= 3 ?x543) (ite $x3290 60 59) ?x3558))))
 (let ((?x3191 (ite (= 6 ?x543) (ite $x3290 152 151) (ite (= 5 ?x543) (ite $x3290 121 120) ?x1232))))
 (let ((?x822 (ite (= 8 ?x543) (ite $x3290 213 212) (ite (= 7 ?x543) (ite $x3290 182 181) ?x3191))))
 (let ((?x838 (ite (= 10 ?x543) (ite $x3290 274 273) (ite (= 9 ?x543) (ite $x3290 244 243) ?x822))))
 (let ((?x1686 (ite (= 12 ?x543) (ite $x3290 335 334) (ite (= 11 ?x543) (ite $x3290 305 304) ?x838))))
 (let ((?x736 (+ (* 365 (- (+ ?x3176 (+ 0 (div ?x3003 12))) 1)) (div (- (+ ?x3176 (+ 0 (div ?x3003 12))) 1) 4))))
 (let ((?x3449 (+ (- ?x736 (div (- (+ ?x3176 (+ 0 (div ?x3003 12))) 1) 100)) (div (- (+ ?x3176 (+ 0 (div ?x3003 12))) 1) 400))))
 (let ((?x3515 (+ (+ (- (+ (+ ?x3449 ?x1686) (- ?x3454 1)) 730179) 0) 730179)))
 (let ((?x3476 (mod ?x3515 146097)))
 (let ((?x3396 (div ?x3476 36524)))
 (let ((?x1497 (ite (<= 4 ?x3396) 3 ?x3396)))
 (let ((?x1537 (- ?x3476 (* ?x1497 36524))))
 (let ((?x2931 (mod ?x1537 1461)))
 (let ((?x3030 (div ?x2931 365)))
 (let ((?x2205 (ite (<= 4 ?x3030) 3 ?x3030)))
 (let ((?x1367 (+ (+ (* (div ?x3515 146097) 400) (* ?x1497 100)) (* (div ?x1537 1461) 4))))
 (let ((?x1925 (+ (+ ?x1367 ?x2205) 1)))
 (let (($x3287 (or (and (= (mod ?x1925 4) 0) (and (distinct (mod ?x1925 100) 0) true)) (= (mod ?x1925 400) 0))))
 (let ((?x3054 (- ?x2931 (* ?x2205 365))))
 (let ((?x1358 (ite $x3287 31 31)))
 (let (($x1853 (>= ?x3054 ?x1358)))
 (let ((?x998 (ite $x1853 (+ (- ?x3054 ?x1358) 1) (+ (- ?x3054 (ite $x3287 0 0)) 1))))
 (let ((?x1662 (ite $x3287 60 59)))
 (let (($x1544 (>= ?x3054 ?x1662)))
 (let ((?x2864 (ite $x3287 91 90)))
 (let (($x1826 (>= ?x3054 ?x2864)))
 (let ((?x2159 (ite $x1826 (+ (- ?x3054 ?x2864) 1) (ite $x1544 (+ (- ?x3054 ?x1662) 1) ?x998))))
 (let ((?x1319 (ite $x3287 121 120)))
 (let (($x1657 (>= ?x3054 ?x1319)))
 (let ((?x2100 (ite $x3287 152 151)))
 (let (($x719 (>= ?x3054 ?x2100)))
 (let ((?x1222 (ite $x719 (+ (- ?x3054 ?x2100) 1) (ite $x1657 (+ (- ?x3054 ?x1319) 1) ?x2159))))
 (let ((?x3606 (ite $x3287 182 181)))
 (let (($x2259 (>= ?x3054 ?x3606)))
 (let ((?x2956 (ite $x3287 213 212)))
 (let (($x1634 (>= ?x3054 ?x2956)))
 (let ((?x2786 (ite $x1634 (+ (- ?x3054 ?x2956) 1) (ite $x2259 (+ (- ?x3054 ?x3606) 1) ?x1222))))
 (let ((?x2315 (ite $x3287 244 243)))
 (let (($x1377 (>= ?x3054 ?x2315)))
 (let ((?x2452 (ite $x3287 274 273)))
 (let (($x2743 (>= ?x3054 ?x2452)))
 (let ((?x1189 (ite $x2743 (+ (- ?x3054 ?x2452) 1) (ite $x1377 (+ (- ?x3054 ?x2315) 1) ?x2786))))
 (let ((?x1261 (ite $x3287 305 304)))
 (let (($x1105 (>= ?x3054 ?x1261)))
 (let ((?x1701 (ite $x3287 335 334)))
 (let (($x757 (>= ?x3054 ?x1701)))
 (let ((?x2558 (ite $x757 (+ (- ?x3054 ?x1701) 1) (ite $x1105 (+ (- ?x3054 ?x1261) 1) ?x1189))))
 (let (($x1330 (= 0 0)))
 (let (($x1352 (= (mod (ite $x1330 (+ ?x3176 (+ 0 (div ?x3003 12))) ?x1925) 400) 0)))
 (let (($x1555 (and (distinct (mod (ite $x1330 (+ ?x3176 (+ 0 (div ?x3003 12))) ?x1925) 100) 0) true)))
 (let (($x2335 (= (mod (ite $x1330 (+ ?x3176 (+ 0 (div ?x3003 12))) ?x1925) 4) 0)))
 (let (($x1815 (or (and $x2335 $x1555) $x1352)))
 (let ((?x1775 (ite $x1657 5 (ite $x1826 4 (ite $x1544 3 (ite $x1853 2 1))))))
 (let ((?x420 (ite $x1377 9 (ite $x1634 8 (ite $x2259 7 (ite $x719 6 ?x1775))))))
 (let ((?x3689 (ite $x1330 ?x543 (ite $x757 12 (ite $x1105 11 (ite $x2743 10 ?x420))))))
 (let ((?x3806 (ite (= 2 ?x3689) (ite $x1815 31 31) (ite (= 1 ?x3689) (ite $x1815 0 0) 0))))
 (let ((?x1973 (ite (= 4 ?x3689) (ite $x1815 91 90) (ite (= 3 ?x3689) (ite $x1815 60 59) ?x3806))))
 (let ((?x3566 (ite (= 6 ?x3689) (ite $x1815 152 151) (ite (= 5 ?x3689) (ite $x1815 121 120) ?x1973))))
 (let ((?x2519 (ite (= 8 ?x3689) (ite $x1815 213 212) (ite (= 7 ?x3689) (ite $x1815 182 181) ?x3566))))
 (let ((?x481 (ite (= 10 ?x3689) (ite $x1815 274 273) (ite (= 9 ?x3689) (ite $x1815 244 243) ?x2519))))
 (let ((?x760 (ite (= 12 ?x3689) (ite $x1815 335 334) (ite (= 11 ?x3689) (ite $x1815 305 304) ?x481))))
 (let ((?x3865 (+ ?x3176 (+ 0 (div ?x3003 12)))))
 (let ((?x2499 (ite $x1330 ?x3865 ?x1925)))
 (let ((?x2919 (- ?x2499 1)))
 (let ((?x3431 (+ (- (+ (* 365 ?x2919) (div ?x2919 4)) (div ?x2919 100)) (div ?x2919 400))))
 (= y_days (- (+ (+ ?x3431 ?x760) (- (ite $x1330 ?x3454 ?x2558) 1)) 730179))))))))))))))))))))))))))))))))))))))))))))))))))))))))))))))))))))))))))))))))))))))))))))))))))))))))))))))))))))))))
(assert
 (not (= y_days 7669)))
(check-sat)
